50
13629

865 445
395 324
777 626
912 656
431 935
42 210
266 990
989 566
524 489
498 454
415 887
941 534
803 267
850 64
311 825
992 941
489 562
367 938
598 15
914 96
930 737
224 861
517 409
143 728
289 845
144 804
774 685
98 641
634 2
819 627
257 506
932 848
546 889
723 342
830 250
617 748
924 334
151 721
318 892
102 65
748 196
76 940
921 582
871 228
701 245
339 823
484 991
574 146
104 823
363 557
